
Gurobi 7.5.2 (win64, Python) logging started 04/06/18 15:51:24


Gurobi 7.5.2 (win64, Python) logging started 04/09/18 09:16:32


Gurobi 7.5.2 (win64, Python) logging started 04/09/18 09:22:27

Optimize a model with 738 rows, 4260 columns and 15570 nonzeros
Variable types: 2892 continuous, 1368 integer (1296 binary)
Coefficient statistics:
  Matrix range     [1e+00, 6e+00]
  Objective range  [1e+00, 1e+00]
  Bounds range     [1e+00, 1e+00]
  RHS range        [1e+00, 1e+00]
Presolve removed 738 rows and 4260 columns
Presolve time: 0.01s
Presolve: All rows and columns removed

Explored 0 nodes (0 simplex iterations) in 0.07 seconds
Thread count was 1 (of 4 available processors)

Solution count 1: 0 

Optimal solution found (tolerance 1.00e-04)
Best objective 0.000000000000e+00, best bound 0.000000000000e+00, gap 0.0000%
Optimize a model with 846 rows, 4278 columns and 19620 nonzeros
Variable types: 2892 continuous, 1386 integer (1296 binary)
Coefficient statistics:
  Matrix range     [1e+00, 6e+00]
  Objective range  [1e+00, 1e+00]
  Bounds range     [1e+00, 1e+00]
  RHS range        [1e+00, 1e+00]

MIP start did not produce a new incumbent solution
MIP start violates constraint AssignAllTasks[ARRG_Slide_Stats] by 1.000000000

Presolve removed 72 rows and 2802 columns
Presolve time: 0.00s

Explored 0 nodes (0 simplex iterations) in 0.05 seconds
Thread count was 1 (of 4 available processors)

Solution count 0

Model is infeasible
Best objective -, best bound -, gap -
Optimize a model with 936 rows, 4296 columns and 22356 nonzeros
Variable types: 2892 continuous, 1404 integer (1296 binary)
Coefficient statistics:
  Matrix range     [1e+00, 6e+00]
  Objective range  [1e+00, 1e+00]
  Bounds range     [1e+00, 1e+00]
  RHS range        [1e+00, 1e+00]

MIP start did not produce a new incumbent solution
MIP start violates constraint AssignAllTasks[ARRG_Slide_Stats] by 1.000000000

Presolve removed 72 rows and 2820 columns
Presolve time: 0.00s

Explored 0 nodes (0 simplex iterations) in 0.06 seconds
Thread count was 1 (of 4 available processors)

Solution count 0

Model is infeasible
Best objective -, best bound -, gap -
Optimize a model with 90 rows, 1458 columns and 2736 nonzeros
Variable types: 1440 continuous, 18 integer (0 binary)
Coefficient statistics:
  Matrix range     [6e-02, 1e+00]
  Objective range  [1e+00, 1e+00]
  Bounds range     [0e+00, 0e+00]
  RHS range        [1e+00, 1e+00]
Found heuristic solution: objective 72.0000000
Presolve removed 90 rows and 1458 columns
Presolve time: 0.00s
Presolve: All rows and columns removed

Explored 0 nodes (0 simplex iterations) in 0.03 seconds
Thread count was 1 (of 4 available processors)

Solution count 2: 0 72 

Optimal solution found (tolerance 1.00e-04)
Best objective 0.000000000000e+00, best bound 0.000000000000e+00, gap 0.0000%
Optimize a model with 306 rows, 1494 columns and 10836 nonzeros
Variable types: 1440 continuous, 54 integer (0 binary)
Coefficient statistics:
  Matrix range     [6e-02, 1e+00]
  Objective range  [1e+00, 1e+00]
  Bounds range     [0e+00, 0e+00]
  RHS range        [1e+00, 1e+00]

MIP start did not produce a new incumbent solution
MIP start violates constraint StartDate[ARRG_Slide_Stats] by 1136.000000000

Presolve removed 0 rows and 18 columns
Presolve time: 0.00s

Explored 0 nodes (0 simplex iterations) in 0.04 seconds
Thread count was 1 (of 4 available processors)

Solution count 0

Model is infeasible
Best objective -, best bound -, gap -
Optimize a model with 396 rows, 1512 columns and 13572 nonzeros
Variable types: 1440 continuous, 72 integer (0 binary)
Coefficient statistics:
  Matrix range     [6e-02, 1e+00]
  Objective range  [1e+00, 1e+00]
  Bounds range     [0e+00, 0e+00]
  RHS range        [1e+00, 1e+00]

MIP start did not produce a new incumbent solution
MIP start violates constraint StartDate[ARRG_Slide_Stats] by 1136.000000000

Presolve removed 0 rows and 36 columns
Presolve time: 0.00s

Explored 0 nodes (0 simplex iterations) in 0.04 seconds
Thread count was 1 (of 4 available processors)

Solution count 0

Model is infeasible
Best objective -, best bound -, gap -
Optimize a model with 486 rows, 1530 columns and 16308 nonzeros
Variable types: 1440 continuous, 90 integer (0 binary)
Coefficient statistics:
  Matrix range     [6e-02, 1e+00]
  Objective range  [1e+00, 1e+00]
  Bounds range     [0e+00, 0e+00]
  RHS range        [1e+00, 1e+00]

MIP start did not produce a new incumbent solution
MIP start violates constraint StartDate[ARRG_Slide_Stats] by 1136.000000000

Presolve removed 0 rows and 54 columns
Presolve time: 0.00s

Explored 0 nodes (0 simplex iterations) in 0.04 seconds
Thread count was 1 (of 4 available processors)

Solution count 0

Model is infeasible
Best objective -, best bound -, gap -

Gurobi 7.5.2 (win64, Python) logging started 04/09/18 09:42:49

Optimize a model with 90 rows, 1458 columns and 2736 nonzeros
Variable types: 1440 continuous, 18 integer (0 binary)
Coefficient statistics:
  Matrix range     [6e-02, 1e+00]
  Objective range  [1e+00, 1e+00]
  Bounds range     [0e+00, 0e+00]
  RHS range        [1e+00, 1e+00]
Found heuristic solution: objective 72.0000000
Presolve removed 90 rows and 1458 columns
Presolve time: 0.00s
Presolve: All rows and columns removed

Explored 0 nodes (0 simplex iterations) in 0.03 seconds
Thread count was 1 (of 4 available processors)

Solution count 2: 0 72 

Optimal solution found (tolerance 1.00e-04)
Best objective 0.000000000000e+00, best bound 0.000000000000e+00, gap 0.0000%

Gurobi 7.5.2 (win64, Python) logging started 07/06/18 13:59:52

